p cnf 64 153
1 5 9 13 0
17 21 25 29 0
33 37 41 45 0
49 53 57 61 0
2 6 10 14 0
18 22 26 30 0
34 38 42 46 0
50 54 58 62 0
3 7 11 15 0
19 23 27 31 0
35 39 43 47 0
51 55 59 63 0
4 8 12 16 0
20 24 28 32 0
36 40 44 48 0
52 56 60 64 0
1 17 33 49 0
5 21 37 53 0
9 25 41 57 0
13 29 45 61 0
2 18 34 50 0
6 22 38 54 0
10 26 42 58 0
14 30 46 62 0
3 19 35 51 0
7 23 39 55 0
11 27 43 59 0
15 31 47 63 0
4 20 36 52 0
8 24 40 56 0
12 28 44 60 0
16 32 48 64 0
1 5 17 21 0
9 13 25 29 0
33 37 49 53 0
41 45 57 61 0
2 6 18 22 0
10 14 26 30 0
34 38 50 54 0
42 46 58 62 0
3 7 19 23 0
11 15 27 31 0
35 39 51 55 0
43 47 59 63 0
4 8 20 24 0
12 16 28 32 0
36 40 52 56 0
44 48 60 64 0
-1 -2 0
-1 -3 0
-1 -4 0
-2 -3 0
-2 -4 0
-3 -4 0
-5 -6 0
-5 -7 0
-5 -8 0
-6 -7 0
-6 -8 0
-7 -8 0
-9 -10 0
-9 -11 0
-9 -12 0
-10 -11 0
-10 -12 0
-11 -12 0
-13 -14 0
-13 -15 0
-13 -16 0
-14 -15 0
-14 -16 0
-15 -16 0
-17 -18 0
-17 -19 0
-17 -20 0
-18 -19 0
-18 -20 0
-19 -20 0
-21 -22 0
-21 -23 0
-21 -24 0
-22 -23 0
-22 -24 0
-23 -24 0
-25 -26 0
-25 -27 0
-25 -28 0
-26 -27 0
-26 -28 0
-27 -28 0
-29 -30 0
-29 -31 0
-29 -32 0
-30 -31 0
-30 -32 0
-31 -32 0
-33 -34 0
-33 -35 0
-33 -36 0
-34 -35 0
-34 -36 0
-35 -36 0
-37 -38 0
-37 -39 0
-37 -40 0
-38 -39 0
-38 -40 0
-39 -40 0
-41 -42 0
-41 -43 0
-41 -44 0
-42 -43 0
-42 -44 0
-43 -44 0
-45 -46 0
-45 -47 0
-45 -48 0
-46 -47 0
-46 -48 0
-47 -48 0
-49 -50 0
-49 -51 0
-49 -52 0
-50 -51 0
-50 -52 0
-51 -52 0
-53 -54 0
-53 -55 0
-53 -56 0
-54 -55 0
-54 -56 0
-55 -56 0
-57 -58 0
-57 -59 0
-57 -60 0
-58 -59 0
-58 -60 0
-59 -60 0
-61 -62 0
-61 -63 0
-61 -64 0
-62 -63 0
-62 -64 0
-63 -64 0
34 0
37 0
44 0
47 0
52 0
55 0
58 0
61 0
-1 -6 -11 -16 -19 -24 -25 -30 0